c *********************************
c * Circuit generated by BenCGen
c *
c * CarryLookaheadBlock_41_41_41_InOutT
c *
c * Ports with 1 gate(s): 2
c * Ports with 2 gate(s): 176
c * Ports with 3 gate(s): 40
c * Ports with 4 gate(s): 30
c * Ports with 5 gate(s): 20
c * Total gates: 268
c *********************************
p cnf 350 1044
1 126 0
-1 -126 0
1 -125 0
126 -125 0
-1 -126 125 0
1 42 -127 0
-1 42 127 0
1 -42 127 0
-1 -42 -127 0
1 -168 0
42 -168 0
-1 -42 168 0
2 43 -128 0
-2 43 128 0
2 -43 128 0
-2 -43 -128 0
2 -169 0
43 -169 0
-2 -43 169 0
3 44 -129 0
-3 44 129 0
3 -44 129 0
-3 -44 -129 0
3 -170 0
44 -170 0
-3 -44 170 0
4 45 -130 0
-4 45 130 0
4 -45 130 0
-4 -45 -130 0
4 -171 0
45 -171 0
-4 -45 171 0
5 46 -131 0
-5 46 131 0
5 -46 131 0
-5 -46 -131 0
5 -172 0
46 -172 0
-5 -46 172 0
6 47 -132 0
-6 47 132 0
6 -47 132 0
-6 -47 -132 0
6 -173 0
47 -173 0
-6 -47 173 0
7 48 -133 0
-7 48 133 0
7 -48 133 0
-7 -48 -133 0
7 -174 0
48 -174 0
-7 -48 174 0
8 49 -134 0
-8 49 134 0
8 -49 134 0
-8 -49 -134 0
8 -175 0
49 -175 0
-8 -49 175 0
9 50 -135 0
-9 50 135 0
9 -50 135 0
-9 -50 -135 0
9 -176 0
50 -176 0
-9 -50 176 0
10 51 -136 0
-10 51 136 0
10 -51 136 0
-10 -51 -136 0
10 -177 0
51 -177 0
-10 -51 177 0
11 52 -137 0
-11 52 137 0
11 -52 137 0
-11 -52 -137 0
11 -178 0
52 -178 0
-11 -52 178 0
12 53 -138 0
-12 53 138 0
12 -53 138 0
-12 -53 -138 0
12 -179 0
53 -179 0
-12 -53 179 0
13 54 -139 0
-13 54 139 0
13 -54 139 0
-13 -54 -139 0
13 -180 0
54 -180 0
-13 -54 180 0
14 55 -140 0
-14 55 140 0
14 -55 140 0
-14 -55 -140 0
14 -181 0
55 -181 0
-14 -55 181 0
15 56 -141 0
-15 56 141 0
15 -56 141 0
-15 -56 -141 0
15 -182 0
56 -182 0
-15 -56 182 0
16 57 -142 0
-16 57 142 0
16 -57 142 0
-16 -57 -142 0
16 -183 0
57 -183 0
-16 -57 183 0
17 58 -143 0
-17 58 143 0
17 -58 143 0
-17 -58 -143 0
17 -184 0
58 -184 0
-17 -58 184 0
18 59 -144 0
-18 59 144 0
18 -59 144 0
-18 -59 -144 0
18 -185 0
59 -185 0
-18 -59 185 0
19 60 -145 0
-19 60 145 0
19 -60 145 0
-19 -60 -145 0
19 -186 0
60 -186 0
-19 -60 186 0
20 61 -146 0
-20 61 146 0
20 -61 146 0
-20 -61 -146 0
20 -187 0
61 -187 0
-20 -61 187 0
21 62 -147 0
-21 62 147 0
21 -62 147 0
-21 -62 -147 0
21 -188 0
62 -188 0
-21 -62 188 0
22 63 -148 0
-22 63 148 0
22 -63 148 0
-22 -63 -148 0
22 -189 0
63 -189 0
-22 -63 189 0
23 64 -149 0
-23 64 149 0
23 -64 149 0
-23 -64 -149 0
23 -190 0
64 -190 0
-23 -64 190 0
24 65 -150 0
-24 65 150 0
24 -65 150 0
-24 -65 -150 0
24 -191 0
65 -191 0
-24 -65 191 0
25 66 -151 0
-25 66 151 0
25 -66 151 0
-25 -66 -151 0
25 -192 0
66 -192 0
-25 -66 192 0
26 67 -152 0
-26 67 152 0
26 -67 152 0
-26 -67 -152 0
26 -193 0
67 -193 0
-26 -67 193 0
27 68 -153 0
-27 68 153 0
27 -68 153 0
-27 -68 -153 0
27 -194 0
68 -194 0
-27 -68 194 0
28 69 -154 0
-28 69 154 0
28 -69 154 0
-28 -69 -154 0
28 -195 0
69 -195 0
-28 -69 195 0
29 70 -155 0
-29 70 155 0
29 -70 155 0
-29 -70 -155 0
29 -196 0
70 -196 0
-29 -70 196 0
30 71 -156 0
-30 71 156 0
30 -71 156 0
-30 -71 -156 0
30 -197 0
71 -197 0
-30 -71 197 0
31 72 -157 0
-31 72 157 0
31 -72 157 0
-31 -72 -157 0
31 -198 0
72 -198 0
-31 -72 198 0
32 73 -158 0
-32 73 158 0
32 -73 158 0
-32 -73 -158 0
32 -199 0
73 -199 0
-32 -73 199 0
33 74 -159 0
-33 74 159 0
33 -74 159 0
-33 -74 -159 0
33 -200 0
74 -200 0
-33 -74 200 0
34 75 -160 0
-34 75 160 0
34 -75 160 0
-34 -75 -160 0
34 -201 0
75 -201 0
-34 -75 201 0
35 76 -161 0
-35 76 161 0
35 -76 161 0
-35 -76 -161 0
35 -202 0
76 -202 0
-35 -76 202 0
36 77 -162 0
-36 77 162 0
36 -77 162 0
-36 -77 -162 0
36 -203 0
77 -203 0
-36 -77 203 0
37 78 -163 0
-37 78 163 0
37 -78 163 0
-37 -78 -163 0
37 -204 0
78 -204 0
-37 -78 204 0
38 79 -164 0
-38 79 164 0
38 -79 164 0
-38 -79 -164 0
38 -205 0
79 -205 0
-38 -79 205 0
39 80 -165 0
-39 80 165 0
39 -80 165 0
-39 -80 -165 0
39 -206 0
80 -206 0
-39 -80 206 0
40 81 -166 0
-40 81 166 0
40 -81 166 0
-40 -81 -166 0
40 -207 0
81 -207 0
-40 -81 207 0
41 82 -167 0
-41 82 167 0
41 -82 167 0
-41 -82 -167 0
41 -208 0
82 -208 0
-41 -82 208 0
125 -250 0
127 -250 0
-125 -127 250 0
125 -251 0
127 -251 0
128 -251 0
-125 -127 -128 251 0
168 -252 0
128 -252 0
-168 -128 252 0
125 -253 0
127 -253 0
128 -253 0
129 -253 0
-125 -127 -128 -129 253 0
168 -254 0
128 -254 0
129 -254 0
-168 -128 -129 254 0
169 -255 0
129 -255 0
-169 -129 255 0
125 -256 0
127 -256 0
128 -256 0
129 -256 0
130 -256 0
-125 -127 -128 -129 -130 256 0
168 -257 0
128 -257 0
129 -257 0
130 -257 0
-168 -128 -129 -130 257 0
169 -258 0
129 -258 0
130 -258 0
-169 -129 -130 258 0
170 -259 0
130 -259 0
-170 -130 259 0
-168 209 0
-250 209 0
168 250 -209 0
-169 210 0
-251 210 0
-252 210 0
169 251 252 -210 0
-170 211 0
-253 211 0
-254 211 0
-255 211 0
170 253 254 255 -211 0
-171 212 0
-256 212 0
-257 212 0
-258 212 0
-259 212 0
171 256 257 258 259 -212 0
212 -260 0
131 -260 0
-212 -131 260 0
212 -261 0
131 -261 0
132 -261 0
-212 -131 -132 261 0
172 -262 0
132 -262 0
-172 -132 262 0
212 -263 0
131 -263 0
132 -263 0
133 -263 0
-212 -131 -132 -133 263 0
172 -264 0
132 -264 0
133 -264 0
-172 -132 -133 264 0
173 -265 0
133 -265 0
-173 -133 265 0
212 -266 0
131 -266 0
132 -266 0
133 -266 0
134 -266 0
-212 -131 -132 -133 -134 266 0
172 -267 0
132 -267 0
133 -267 0
134 -267 0
-172 -132 -133 -134 267 0
173 -268 0
133 -268 0
134 -268 0
-173 -133 -134 268 0
174 -269 0
134 -269 0
-174 -134 269 0
-172 213 0
-260 213 0
172 260 -213 0
-173 214 0
-261 214 0
-262 214 0
173 261 262 -214 0
-174 215 0
-263 215 0
-264 215 0
-265 215 0
174 263 264 265 -215 0
-175 216 0
-266 216 0
-267 216 0
-268 216 0
-269 216 0
175 266 267 268 269 -216 0
216 -270 0
135 -270 0
-216 -135 270 0
216 -271 0
135 -271 0
136 -271 0
-216 -135 -136 271 0
176 -272 0
136 -272 0
-176 -136 272 0
216 -273 0
135 -273 0
136 -273 0
137 -273 0
-216 -135 -136 -137 273 0
176 -274 0
136 -274 0
137 -274 0
-176 -136 -137 274 0
177 -275 0
137 -275 0
-177 -137 275 0
216 -276 0
135 -276 0
136 -276 0
137 -276 0
138 -276 0
-216 -135 -136 -137 -138 276 0
176 -277 0
136 -277 0
137 -277 0
138 -277 0
-176 -136 -137 -138 277 0
177 -278 0
137 -278 0
138 -278 0
-177 -137 -138 278 0
178 -279 0
138 -279 0
-178 -138 279 0
-176 217 0
-270 217 0
176 270 -217 0
-177 218 0
-271 218 0
-272 218 0
177 271 272 -218 0
-178 219 0
-273 219 0
-274 219 0
-275 219 0
178 273 274 275 -219 0
-179 220 0
-276 220 0
-277 220 0
-278 220 0
-279 220 0
179 276 277 278 279 -220 0
220 -280 0
139 -280 0
-220 -139 280 0
220 -281 0
139 -281 0
140 -281 0
-220 -139 -140 281 0
180 -282 0
140 -282 0
-180 -140 282 0
220 -283 0
139 -283 0
140 -283 0
141 -283 0
-220 -139 -140 -141 283 0
180 -284 0
140 -284 0
141 -284 0
-180 -140 -141 284 0
181 -285 0
141 -285 0
-181 -141 285 0
220 -286 0
139 -286 0
140 -286 0
141 -286 0
142 -286 0
-220 -139 -140 -141 -142 286 0
180 -287 0
140 -287 0
141 -287 0
142 -287 0
-180 -140 -141 -142 287 0
181 -288 0
141 -288 0
142 -288 0
-181 -141 -142 288 0
182 -289 0
142 -289 0
-182 -142 289 0
-180 221 0
-280 221 0
180 280 -221 0
-181 222 0
-281 222 0
-282 222 0
181 281 282 -222 0
-182 223 0
-283 223 0
-284 223 0
-285 223 0
182 283 284 285 -223 0
-183 224 0
-286 224 0
-287 224 0
-288 224 0
-289 224 0
183 286 287 288 289 -224 0
224 -290 0
143 -290 0
-224 -143 290 0
224 -291 0
143 -291 0
144 -291 0
-224 -143 -144 291 0
184 -292 0
144 -292 0
-184 -144 292 0
224 -293 0
143 -293 0
144 -293 0
145 -293 0
-224 -143 -144 -145 293 0
184 -294 0
144 -294 0
145 -294 0
-184 -144 -145 294 0
185 -295 0
145 -295 0
-185 -145 295 0
224 -296 0
143 -296 0
144 -296 0
145 -296 0
146 -296 0
-224 -143 -144 -145 -146 296 0
184 -297 0
144 -297 0
145 -297 0
146 -297 0
-184 -144 -145 -146 297 0
185 -298 0
145 -298 0
146 -298 0
-185 -145 -146 298 0
186 -299 0
146 -299 0
-186 -146 299 0
-184 225 0
-290 225 0
184 290 -225 0
-185 226 0
-291 226 0
-292 226 0
185 291 292 -226 0
-186 227 0
-293 227 0
-294 227 0
-295 227 0
186 293 294 295 -227 0
-187 228 0
-296 228 0
-297 228 0
-298 228 0
-299 228 0
187 296 297 298 299 -228 0
228 -300 0
147 -300 0
-228 -147 300 0
228 -301 0
147 -301 0
148 -301 0
-228 -147 -148 301 0
188 -302 0
148 -302 0
-188 -148 302 0
228 -303 0
147 -303 0
148 -303 0
149 -303 0
-228 -147 -148 -149 303 0
188 -304 0
148 -304 0
149 -304 0
-188 -148 -149 304 0
189 -305 0
149 -305 0
-189 -149 305 0
228 -306 0
147 -306 0
148 -306 0
149 -306 0
150 -306 0
-228 -147 -148 -149 -150 306 0
188 -307 0
148 -307 0
149 -307 0
150 -307 0
-188 -148 -149 -150 307 0
189 -308 0
149 -308 0
150 -308 0
-189 -149 -150 308 0
190 -309 0
150 -309 0
-190 -150 309 0
-188 229 0
-300 229 0
188 300 -229 0
-189 230 0
-301 230 0
-302 230 0
189 301 302 -230 0
-190 231 0
-303 231 0
-304 231 0
-305 231 0
190 303 304 305 -231 0
-191 232 0
-306 232 0
-307 232 0
-308 232 0
-309 232 0
191 306 307 308 309 -232 0
232 -310 0
151 -310 0
-232 -151 310 0
232 -311 0
151 -311 0
152 -311 0
-232 -151 -152 311 0
192 -312 0
152 -312 0
-192 -152 312 0
232 -313 0
151 -313 0
152 -313 0
153 -313 0
-232 -151 -152 -153 313 0
192 -314 0
152 -314 0
153 -314 0
-192 -152 -153 314 0
193 -315 0
153 -315 0
-193 -153 315 0
232 -316 0
151 -316 0
152 -316 0
153 -316 0
154 -316 0
-232 -151 -152 -153 -154 316 0
192 -317 0
152 -317 0
153 -317 0
154 -317 0
-192 -152 -153 -154 317 0
193 -318 0
153 -318 0
154 -318 0
-193 -153 -154 318 0
194 -319 0
154 -319 0
-194 -154 319 0
-192 233 0
-310 233 0
192 310 -233 0
-193 234 0
-311 234 0
-312 234 0
193 311 312 -234 0
-194 235 0
-313 235 0
-314 235 0
-315 235 0
194 313 314 315 -235 0
-195 236 0
-316 236 0
-317 236 0
-318 236 0
-319 236 0
195 316 317 318 319 -236 0
236 -320 0
155 -320 0
-236 -155 320 0
236 -321 0
155 -321 0
156 -321 0
-236 -155 -156 321 0
196 -322 0
156 -322 0
-196 -156 322 0
236 -323 0
155 -323 0
156 -323 0
157 -323 0
-236 -155 -156 -157 323 0
196 -324 0
156 -324 0
157 -324 0
-196 -156 -157 324 0
197 -325 0
157 -325 0
-197 -157 325 0
236 -326 0
155 -326 0
156 -326 0
157 -326 0
158 -326 0
-236 -155 -156 -157 -158 326 0
196 -327 0
156 -327 0
157 -327 0
158 -327 0
-196 -156 -157 -158 327 0
197 -328 0
157 -328 0
158 -328 0
-197 -157 -158 328 0
198 -329 0
158 -329 0
-198 -158 329 0
-196 237 0
-320 237 0
196 320 -237 0
-197 238 0
-321 238 0
-322 238 0
197 321 322 -238 0
-198 239 0
-323 239 0
-324 239 0
-325 239 0
198 323 324 325 -239 0
-199 240 0
-326 240 0
-327 240 0
-328 240 0
-329 240 0
199 326 327 328 329 -240 0
240 -330 0
159 -330 0
-240 -159 330 0
240 -331 0
159 -331 0
160 -331 0
-240 -159 -160 331 0
200 -332 0
160 -332 0
-200 -160 332 0
240 -333 0
159 -333 0
160 -333 0
161 -333 0
-240 -159 -160 -161 333 0
200 -334 0
160 -334 0
161 -334 0
-200 -160 -161 334 0
201 -335 0
161 -335 0
-201 -161 335 0
240 -336 0
159 -336 0
160 -336 0
161 -336 0
162 -336 0
-240 -159 -160 -161 -162 336 0
200 -337 0
160 -337 0
161 -337 0
162 -337 0
-200 -160 -161 -162 337 0
201 -338 0
161 -338 0
162 -338 0
-201 -161 -162 338 0
202 -339 0
162 -339 0
-202 -162 339 0
-200 241 0
-330 241 0
200 330 -241 0
-201 242 0
-331 242 0
-332 242 0
201 331 332 -242 0
-202 243 0
-333 243 0
-334 243 0
-335 243 0
202 333 334 335 -243 0
-203 244 0
-336 244 0
-337 244 0
-338 244 0
-339 244 0
203 336 337 338 339 -244 0
244 -340 0
163 -340 0
-244 -163 340 0
244 -341 0
163 -341 0
164 -341 0
-244 -163 -164 341 0
204 -342 0
164 -342 0
-204 -164 342 0
244 -343 0
163 -343 0
164 -343 0
165 -343 0
-244 -163 -164 -165 343 0
204 -344 0
164 -344 0
165 -344 0
-204 -164 -165 344 0
205 -345 0
165 -345 0
-205 -165 345 0
244 -346 0
163 -346 0
164 -346 0
165 -346 0
166 -346 0
-244 -163 -164 -165 -166 346 0
204 -347 0
164 -347 0
165 -347 0
166 -347 0
-204 -164 -165 -166 347 0
205 -348 0
165 -348 0
166 -348 0
-205 -165 -166 348 0
206 -349 0
166 -349 0
-206 -166 349 0
-204 245 0
-340 245 0
204 340 -245 0
-205 246 0
-341 246 0
-342 246 0
205 341 342 -246 0
-206 247 0
-343 247 0
-344 247 0
-345 247 0
206 343 344 345 -247 0
-207 248 0
-346 248 0
-347 248 0
-348 248 0
-349 248 0
207 346 347 348 349 -248 0
248 -350 0
167 -350 0
-248 -167 350 0
-208 249 0
-350 249 0
208 350 -249 0
127 125 -83 0
-127 125 83 0
127 -125 83 0
-127 -125 -83 0
128 209 -84 0
-128 209 84 0
128 -209 84 0
-128 -209 -84 0
129 210 -85 0
-129 210 85 0
129 -210 85 0
-129 -210 -85 0
130 211 -86 0
-130 211 86 0
130 -211 86 0
-130 -211 -86 0
131 212 -87 0
-131 212 87 0
131 -212 87 0
-131 -212 -87 0
132 213 -88 0
-132 213 88 0
132 -213 88 0
-132 -213 -88 0
133 214 -89 0
-133 214 89 0
133 -214 89 0
-133 -214 -89 0
134 215 -90 0
-134 215 90 0
134 -215 90 0
-134 -215 -90 0
135 216 -91 0
-135 216 91 0
135 -216 91 0
-135 -216 -91 0
136 217 -92 0
-136 217 92 0
136 -217 92 0
-136 -217 -92 0
137 218 -93 0
-137 218 93 0
137 -218 93 0
-137 -218 -93 0
138 219 -94 0
-138 219 94 0
138 -219 94 0
-138 -219 -94 0
139 220 -95 0
-139 220 95 0
139 -220 95 0
-139 -220 -95 0
140 221 -96 0
-140 221 96 0
140 -221 96 0
-140 -221 -96 0
141 222 -97 0
-141 222 97 0
141 -222 97 0
-141 -222 -97 0
142 223 -98 0
-142 223 98 0
142 -223 98 0
-142 -223 -98 0
143 224 -99 0
-143 224 99 0
143 -224 99 0
-143 -224 -99 0
144 225 -100 0
-144 225 100 0
144 -225 100 0
-144 -225 -100 0
145 226 -101 0
-145 226 101 0
145 -226 101 0
-145 -226 -101 0
146 227 -102 0
-146 227 102 0
146 -227 102 0
-146 -227 -102 0
147 228 -103 0
-147 228 103 0
147 -228 103 0
-147 -228 -103 0
148 229 -104 0
-148 229 104 0
148 -229 104 0
-148 -229 -104 0
149 230 -105 0
-149 230 105 0
149 -230 105 0
-149 -230 -105 0
150 231 -106 0
-150 231 106 0
150 -231 106 0
-150 -231 -106 0
151 232 -107 0
-151 232 107 0
151 -232 107 0
-151 -232 -107 0
152 233 -108 0
-152 233 108 0
152 -233 108 0
-152 -233 -108 0
153 234 -109 0
-153 234 109 0
153 -234 109 0
-153 -234 -109 0
154 235 -110 0
-154 235 110 0
154 -235 110 0
-154 -235 -110 0
155 236 -111 0
-155 236 111 0
155 -236 111 0
-155 -236 -111 0
156 237 -112 0
-156 237 112 0
156 -237 112 0
-156 -237 -112 0
157 238 -113 0
-157 238 113 0
157 -238 113 0
-157 -238 -113 0
158 239 -114 0
-158 239 114 0
158 -239 114 0
-158 -239 -114 0
159 240 -115 0
-159 240 115 0
159 -240 115 0
-159 -240 -115 0
160 241 -116 0
-160 241 116 0
160 -241 116 0
-160 -241 -116 0
161 242 -117 0
-161 242 117 0
161 -242 117 0
-161 -242 -117 0
162 243 -118 0
-162 243 118 0
162 -243 118 0
-162 -243 -118 0
163 244 -119 0
-163 244 119 0
163 -244 119 0
-163 -244 -119 0
164 245 -120 0
-164 245 120 0
164 -245 120 0
-164 -245 -120 0
165 246 -121 0
-165 246 121 0
165 -246 121 0
-165 -246 -121 0
166 247 -122 0
-166 247 122 0
166 -247 122 0
-166 -247 -122 0
167 248 -123 0
-167 248 123 0
167 -248 123 0
-167 -248 -123 0
249 -124 0
-249 124 0
